
Gurobi 11.0.2 (linux64) logging started Tue 03 Dec 2024 09:00:57 AM CET

Set parameter LogFile to value "./res/knapPI_11_20_1000/knapPI_11_20_1000_74/grb_dom.log"
Set parameter Presolve to value 0
Set parameter Aggregate to value 0
Set parameter Heuristics to value 0
Set parameter LPWarmStart to value 0
Set parameter NLPHeur to value 0
Set parameter PreDepRow to value 0
Set parameter PreDual to value 0
Set parameter RINS to value 0
Set parameter Symmetry to value 0
Set parameter NodeLimit to value 1
Set parameter Threads to value 1

Gurobi 11.0.2 (linux64) logging started Tue 03 Dec 2024 09:00:57 AM CET

Set parameter LogFile to value "./res/knapPI_11_20_1000/knapPI_11_20_1000_74/grb_dom.log"
Set parameter NLPHeur to value 0
Set parameter LPWarmStart to value 0
Set parameter PreDepRow to value 0
Set parameter Symmetry to value 0
Set parameter Presolve to value 0
Gurobi Optimizer version 11.0.2 build v11.0.2rc0 (linux64 - "Pop!_OS 20.04 LTS")

CPU model: Intel(R) Core(TM) i7-8650U CPU @ 1.90GHz, instruction set [SSE2|AVX|AVX2]
Thread count: 4 physical cores, 4 logical processors, using up to 1 threads

Optimize a model with 660 rows, 20 columns and 3216 nonzeros
Model fingerprint: 0x9fc1f0fd
Variable types: 0 continuous, 20 integer (20 binary)
Coefficient statistics:
  Matrix range     [1e+00, 1e+03]
  Objective range  [2e+02, 8e+02]
  Bounds range     [0e+00, 0e+00]
  RHS range        [9e+03, 9e+03]
Variable types: 0 continuous, 20 integer (20 binary)

Root relaxation: objective 7.269000e+03, 2 iterations, 0.00 seconds (0.00 work units)

    Nodes    |    Current Node    |     Objective Bounds      |     Work
 Expl Unexpl |  Obj  Depth IntInf | Incumbent    BestBd   Gap | It/Node Time

     0     0 7269.00000    0    1          - 7269.00000      -     -    0s
     0     0 7269.00000    0    1          - 7269.00000      -     -    0s
*    0     0               0    7220.0000000 7220.00000  0.00%     -    0s

Cutting planes:
  MIR: 1
  RLT: 1

Explored 1 nodes (5 simplex iterations) in 0.01 seconds (0.00 work units)
Thread count was 1 (of 4 available processors)

Solution count 1: 7220 

Optimal solution found (tolerance 1.00e-04)
Best objective 7.220000000000e+03, best bound 7.220000000000e+03, gap 0.0000%

User-callback calls 56, time in user-callback 0.00 sec
opt = true
obj = 7220.0
nb_dom_cuts = 659
solved_time = 0.0134
opt_val = 7220.0
